c Generated map
c Size: 8 * 8, weights in range: 1 to 10, walls: False, with ratio 0.0
c dim 6 of 10
c
p sp 64 112
c graph contains 64 nodes and 112 arcs
c
a 1 9 4
a 9 1 4
a 1 2 4
a 2 1 4
a 2 10 8
a 10 2 8
a 2 3 10
a 3 2 10
a 3 11 7
a 11 3 7
a 3 4 10
a 4 3 10
a 4 12 2
a 12 4 2
a 4 5 1
a 5 4 1
a 5 13 4
a 13 5 4
a 5 6 5
a 6 5 5
a 6 14 4
a 14 6 4
a 6 7 2
a 7 6 2
a 7 15 8
a 15 7 8
a 7 8 6
a 8 7 6
a 8 16 6
a 16 8 6
a 9 17 5
a 17 9 5
a 9 10 4
a 10 9 4
a 10 18 7
a 18 10 7
a 10 11 8
a 11 10 8
a 11 19 2
a 19 11 2
a 11 12 9
a 12 11 9
a 12 20 2
a 20 12 2
a 12 13 3
a 13 12 3
a 13 21 5
a 21 13 5
a 13 14 2
a 14 13 2
a 14 22 1
a 22 14 1
a 14 15 1
a 15 14 1
a 15 23 8
a 23 15 8
a 15 16 1
a 16 15 1
a 16 24 7
a 24 16 7
a 17 25 2
a 25 17 2
a 17 18 6
a 18 17 6
a 18 26 4
a 26 18 4
a 18 19 5
a 19 18 5
a 19 27 4
a 27 19 4
a 19 20 5
a 20 19 5
a 20 28 4
a 28 20 4
a 20 21 9
a 21 20 9
a 21 29 6
a 29 21 6
a 21 22 5
a 22 21 5
a 22 30 4
a 30 22 4
a 22 23 6
a 23 22 6
a 23 31 5
a 31 23 5
a 23 24 8
a 24 23 8
a 24 32 7
a 32 24 7
a 25 33 1
a 33 25 1
a 25 26 2
a 26 25 2
a 26 34 10
a 34 26 10
a 26 27 1
a 27 26 1
a 27 35 3
a 35 27 3
a 27 28 9
a 28 27 9
a 28 36 1
a 36 28 1
a 28 29 9
a 29 28 9
a 29 37 9
a 37 29 9
a 29 30 5
a 30 29 5
a 30 38 4
a 38 30 4
a 30 31 5
a 31 30 5
a 31 39 7
a 39 31 7
a 31 32 1
a 32 31 1
a 32 40 7
a 40 32 7
a 33 41 7
a 41 33 7
a 33 34 1
a 34 33 1
a 34 42 5
a 42 34 5
a 34 35 8
a 35 34 8
a 35 43 2
a 43 35 2
a 35 36 4
a 36 35 4
a 36 44 7
a 44 36 7
a 36 37 7
a 37 36 7
a 37 45 1
a 45 37 1
a 37 38 2
a 38 37 2
a 38 46 3
a 46 38 3
a 38 39 9
a 39 38 9
a 39 47 10
a 47 39 10
a 39 40 10
a 40 39 10
a 40 48 4
a 48 40 4
a 41 49 4
a 49 41 4
a 41 42 3
a 42 41 3
a 42 50 2
a 50 42 2
a 42 43 5
a 43 42 5
a 43 51 1
a 51 43 1
a 43 44 4
a 44 43 4
a 44 52 2
a 52 44 2
a 44 45 9
a 45 44 9
a 45 53 5
a 53 45 5
a 45 46 3
a 46 45 3
a 46 54 5
a 54 46 5
a 46 47 1
a 47 46 1
a 47 55 3
a 55 47 3
a 47 48 7
a 48 47 7
a 48 56 6
a 56 48 6
a 49 57 5
a 57 49 5
a 49 50 10
a 50 49 10
a 50 58 7
a 58 50 7
a 50 51 4
a 51 50 4
a 51 59 3
a 59 51 3
a 51 52 1
a 52 51 1
a 52 60 4
a 60 52 4
a 52 53 2
a 53 52 2
a 53 61 10
a 61 53 10
a 53 54 10
a 54 53 10
a 54 62 10
a 62 54 10
a 54 55 8
a 55 54 8
a 55 63 7
a 63 55 7
a 55 56 4
a 56 55 4
a 56 64 9
a 64 56 9
a 57 58 4
a 58 57 4
a 58 59 2
a 59 58 2
a 59 60 7
a 60 59 7
a 60 61 8
a 61 60 8
a 61 62 6
a 62 61 6
a 62 63 7
a 63 62 7
a 63 64 6
a 64 63 6
